c SAT Generator for power-law distributed variable frequencies
c -g u -v 20 -c 91 -k 3 -p 2.750000 -b 3.200000 -f /home/schmidt/Devel/ni-kop-sat/data/ensemble/ruf20-91/ruf20-91-440 -u 1 -U 1 -s 3490446143
p cnf 20 91
-3 -13 16 0
-1 4 12 0
-6 -13 17 0
-6 -7 17 0
-3 -9 -13 0
3 4 16 0
4 17 20 0
-7 -10 18 0
-6 8 10 0
4 6 8 0
3 7 -8 0
-2 -11 17 0
-2 15 19 0
-9 10 -14 0
-1 2 5 0
2 4 19 0
-3 15 16 0
7 17 -18 0
-1 -2 -6 0
2 5 -14 0
-6 7 18 0
10 11 -19 0
10 -16 -18 0
10 -15 17 0
3 -6 -9 0
1 -13 17 0
2 9 19 0
-1 7 -17 0
6 19 -20 0
-12 16 -18 0
1 -10 -19 0
13 -15 -20 0
6 -12 -17 0
4 -10 -11 0
-3 12 -14 0
-9 -11 16 0
-7 8 -11 0
-5 -7 10 0
-1 4 -9 0
-4 6 -12 0
-2 -14 16 0
10 -16 -19 0
-4 -5 -16 0
-1 9 -14 0
-15 -18 -20 0
4 -5 -19 0
-2 -18 20 0
-8 -15 20 0
-6 7 -16 0
-5 -16 -20 0
9 10 16 0
2 -3 -18 0
7 11 20 0
8 16 18 0
-5 13 -14 0
-1 3 20 0
2 -19 -20 0
-3 6 -17 0
-3 -8 -10 0
-1 -16 19 0
-1 -10 20 0
-11 12 17 0
-2 9 17 0
4 7 10 0
-2 -6 16 0
-7 11 12 0
-1 -2 20 0
-7 10 -17 0
2 -15 -16 0
-1 2 16 0
-2 5 10 0
-13 16 18 0
-14 -19 20 0
10 -11 17 0
-9 -12 -13 0
5 13 -14 0
-15 -17 20 0
13 14 20 0
12 14 20 0
6 -13 20 0
-7 15 -20 0
14 -15 -19 0
-15 -18 20 0
-9 14 -20 0
-6 -12 13 0
10 -12 -16 0
13 -17 18 0
1 -3 8 0
7 -8 17 0
1 -14 16 0
-2 13 19 0
